NAME : XML100_3165_04
DIMENSION : 101
NB_CLUSTERS : 30
CLUSTERING_ALG : DBSCAN
CLUSTERING_PARAMS : eps(30), minSamples(3)
CLUSTERS
1 0
2 9 47 50 64 81
3 29 59 61 65 77
4 7 13 22 36 41 54 62 72 92
5 39 87
6 46 75
7 49 78 98
8 51 60 68 84
9 14 53 85
10 70 83
11 27 66
12 44 48
13 8 30
14 38 55 90
15 4 34
16 5 33 88 100
17 1 79 94
18 16 45
19 11 17 31 52 58 89
20 6 25 37 71 73
21 43 74 80
22 10 20 35 56 96
23 3 15 26 28 69 82
24 2 19
25 42 76 86
26 12 21 24 91 97
27 23 93
28 95 99
29 18 40 57
30 32 63 67
EOF